sat
(:max-memory                   18.05
 :memory                       18.05
 :nlsat-irrational-assignments 1
 :nlsat-propagations           6
 :nlsat-stages                 4
 :num-allocs                   23574
 :rlimit-count                 1524
 :time                         0.00
 :total-time                   0.01)
